c Lingeling SAT Solver
c 
c Version ala b02aa1a04343558c4252b5f4a723be021964f652
c 
c Copyright (C) 2010-2012 Armin Biere JKU Linz Austria.
c All rights reserved.
c 
c released Sat Oct 13 14:05:26 CEST 2012
c compiled Sat Feb 16 02:48:12 EST 2013
c 
c gcc (Debian 4.4.5-8) 4.4.5
c -Wall -O3 -DNLGLOG -DNDEBUG -DNCHKSOL -DNLGLPICOSAT 
c Linux greencar2 2.6.32-5-amd64 x86_64
c 
c reading input file p47.cnf
c no embedded options
c found 'p cnf 231144 716728' header
c read 231144 variables, 716728 clauses, 1491300 literals in 0.0 seconds
c
c feature vars 231144
c feature lits.total 1491300
c feature lits.pos 794265
c feature lits.neg 697035
c feature clauses.total 716728
c feature clauses.unit 86120
c feature clauses.bin 504844
c feature clauses.trn 124364
c feature clauses.lrg 1400
c feature cog.val.min 1
c feature cog.val.avg 103000
c feature cog.val.max 222435
c feature cog.var.min 1
c feature cog.var.avg 115573
c feature cog.var.max 231143
c
c
c --abstime=0
c --acts=2
c --actavgmax=120
c --actstdmin=20
c --actstdmax=80
c --agile=23
c --bias=2
c --block=1
c --blkrtc=0
c --blkclslim=2000
c --blkocclim=2000
c --blkmaxeff=2147483647
c --blkmineff=10000000
c --blkreleff=20
c --card=0
c --cce=3
c --ccemaxeff=100000000
c --ccemineff=5000000
c --ccereleff=3
c --check=0
c --cgrclsr=1
c --cgrmaxority=20
c --cgrmaxeff=8000000
c --cgrmineff=200000
c --cgreleff=1
c --cgrexteq=1
c --cgrextand=1
c --cgrextunits=1
c --cgrextite=1
c --cgrextxor=1
c --cliff=1
c --cliffreleff=8
c --cliffmineff=10000000
c --cliffmaxeff=100000000
c --compact=0
c --decompose=1
c --defragint=10000000
c --defragfree=50
c --elim=1
c --elmrtc=0
c --elmblk=1
c --elmclslim=1000
c --elmocclim=1000
c --elmaxeff=100000000
c --elmineff=5000000
c --elmreleff=10
c --sleeponabort=0
c --exitonabort=0
c --flipping=1
c --flipint=2
c --flipdur=50
c --fliptop=1
c --force=0
c --gauss=1
c --gaussextrall=1
c --gaussmaxor=20
c --gaussexptrn=1
c --gaussmaxeff=50000000
c --gaussmineff=2000000
c --gaussreleff=2
c --gluescale=2
c --gluekeep=0
c --inprocessing=1
c --cintinc=10000
c --irrlim=20
c --lift=1
c --lftmaxeff=20000000
c --lftmineff=500000
c --lftreleff=6
c --lhbr=1
c --lkhd=1
c --clim=-1
c --mocint=1000
c --move=2
c --log=-1
c --otfs=1
c --phase=0
c --phaseneginit=0
c --plain=0
c --probe=1
c --prbasicmaxeff=100000000
c --prbasicmineff=1000000
c --prbasicreleff=10
c --prbasic=1
c --prbasicroundlim=9
c --queuemergelim=10000
c --queuefactor=833
c --queueinc=20
c --rmincpen=4
c --seed=0
c --smallirr=90
c --smallve=1
c --smallvevars=12
c --randec=1
c --randecint=1000
c --redfixed=0
c --redlbound=0
c --redlexpfac=10
c --redldoutfac=0
c --redloutinc=10000
c --redlinit=1000
c --redlinc=1000
c --redinoutinc=100
c --redlmininc=10
c --redlmaxinc=200
c --redlminrel=10
c --redlmaxrel=300
c --redlminabs=500
c --redlmaxabs=1000000
c --reduce=1
c --restart=2
c --restartint=5
c --rstinoutinc=110
c --simplify=1
c --simpdelay=100
c --simpen=4
c --sizepen=1000000
c --sizemaxpen=3
c --sortlits=0
c --syncint=111111
c --termint=122222
c --ternres=1
c --ternresrtc=0
c --trnrmineff=4000000
c --trnrmaxeff=40000000
c --trnreleff=10
c --transred=1
c --trdmineff=100000
c --trdmaxeff=2000000
c --trdreleff=10
c --unhide=1
c --unhdextstamp=1
c --unhdhbr=0
c --unhdmaxeff=20000000
c --unhdmineff=1000000
c --unhdreleff=4
c --unhdlnpr=3
c --unhdroundlim=5
c --verbose=1
c --witness=1
c [limits] no conflict limit
c [limits] simplification delayed by 100 to 100 conflicts
c 
c  seconds         irredundant          redundant clauses agility   height
c          variables clauses conflicts large binary ternary    glue         MB
c 
c *    0.0  127764   535950         0       0      0     0  64  0.0   0.0   42
c [cut-width] 178643, max 276936, min4 119296 at 75%, min10 33947 at 89%
c [decision-order] bias 1, old 1
c [queue-schedule-all-variables]
c s    0.0  127764   535950         0       0      0     0  64  0.0   0.0   42
c [simplification-1] limit hit at 100 conflicts
c [simplification-1] simplification penalty of 4
c [ternres-1] limit 4000000 with penalty 0 = 0 + 0
c [ternres-1] all 127764 free variables schedulable
c [ternres-1] 0 ternary resolvents (0 bin, 0 trn)
c [ternres-1] 26063 variables remain 20% (101701 retained)
c [gauss-1] limit 2000000 penalty 0 = 0 + 0
c [gauss-1] extracted 165031 xors of average arity 2.0
c [gauss-1] connected 330066 occurrences of 91819 variables (average 3.6)
c [gauss-1] limit 2000000 penalty 0 = 0 + 0
c d    1.5   58922   267388       100     100      0     0  52  5.1 458.4   21
c [gauss-1] exported 0 unary, 1 binary and 0 ternary equations
c G    1.5   58922   267388       100     100      0     0  52  5.1 458.4   21
c [basicprobe-1] limit 1000000 penalty 0 = 0 + 0
c [basicprobe-1-0] 4166 probes remain 7% after last round
c [basicprobe-1-0] removed 0 variables, found 4772 hbrs
c p    1.7   58922   267388       100     100   4772     0  52  5.1 458.4   26
c [cgrclsr-1] limit 200000 penalty 0 = 0 + 0
c [cgrclsr-1] all 58922 free variables schedulable
c [cgrclsr-1] fully completed congruence closure
c [lift-1] limit 500000 with penalty 0 = 0 + 0
c [lift-1] using 58922 probes 100%
c [lift-1] 58880 variables remain 100% (42 retained)
c [cliff-1] limit of 10000000 steps penalty 0 = 0 + 0
c [cliff-1] failed 0, lifted 0
c [unhide-1] limit 1000000 with penalty 0 = 0 + 0
c [unhide-1-1] 0 units, 0 failed, 21872 tauts, 0 hbrs, 84 literals
c u    2.8   58922   245516       100     100  18916     0  52  5.1 458.4   26
c [transred-1] limit 100000 with penalty 0 = 0 + 0
c t    2.8   58922   245515       100     100  18908     0  52  5.1 458.4   26
c [block-1] scheduling all variables this time
c [block-1] scheduled 58922 variables 100%
c [block-1] limit of 10000000 steps penalty 0 = 0 + 0
c [block-1] fully completed blocked clause elimination
c [block-1] transition to [ all 0 rem 0 ] state
c [block-1] eliminated 4600 blocked clauses
c k    3.1   58922   240915       100     100  18908  4600  52  5.1 458.4   21
c [cce-1] scheduling all variables this time
c [cce-1] limit of 10000000 steps penalty 0 = 0 + 0
c [cce-1] incomplete covered clause elimination 53545 not tried 91%
c [cce-1] transition to [ all 1 rem 1 ] state
c [cce-1] eliminated 61 covered clauses
c E    3.8   58921   240854       100     100  26261  4600  52  5.1 458.4   21
c [elim-1] scheduling all variables this time
c [elim-1] scheduled 58921 variables 100%
c [elim-1] limit of 5000000 steps penalty 0 = 0 + 0
c [elim-1] incomplete variable elimination 44087 not tried 75%
c [elim-1] transition to [ all 1 rem 1 ] state
c [elim-1] eliminated 6382 = 11% variables out of 58921
c e    5.3   52539   236993       100      50  10817   567  52  5.1 458.4   21
c [phase-1] phase bias: 1785 positive 23%, 6125 negative 77%
c [simplification-1] removed 75225 variables 58%
c [simplification-1] limit increments divided by 30
c [simplification-1] arithmetic increase of conflict limit interval by 333
c [simplification-1] new irredundant limit 2344289
c [simplification-1] new conflict limit 433
c [simplification-1] simplification penalty reduced to 3
c R    5.5   52539   236993       407     331  10824   584  18  8.1 562.5   26
c [simplification-2] limit hit at 433 conflicts
c [simplification-2] simplification penalty of 3
c [ternres-2] limit 2000000 with penalty 1 = 1 + 0
c [ternres-2] 10736 schedulable variables 20%
c [ternres-2] 3 ternary resolvents (0 bin, 3 trn)
c [ternres-2] fully completed ternary resolution
c T    5.6   52539   236993       433     349  10827   592  13  7.8 494.9   26
c [gauss-2] limit 2000000 penalty 0 = 0 + 0
c [gauss-2] extracted 871 xors of average arity 3.0
c [gauss-2] connected 2613 occurrences of 1348 variables (average 1.9)
c [gauss-2] limit 2000000 penalty 0 = 0 + 0
c [gauss-2] fully completed
c [gauss-2] exported 0 unary, 0 binary and 0 ternary equations
c G    5.8   52539   236993       433     349  10827   592  13  7.8 494.9   21
c [basicprobe-2] limit 500000 penalty 1 = 1 + 0
c [basicprobe-2-0] 4232 probes remain 8% after last round
c [basicprobe-2-0] removed 0 variables, found 1187 hbrs
c p    6.0   52539   236993       433     349  12014   592  13  7.8 494.9   26
c [cgrclsr-2] limit 100000 penalty 1 = 1 + 0
c [cgrclsr-2] all 52539 free variables schedulable
c [cgrclsr-2] fully completed congruence closure
c [lift-2] limit 250000 with penalty 1 = 1 + 0
c [lift-2] using 52501 probes 100%
c [lift-2] 52478 variables remain 100% (61 retained)
c [cliff-2] limit of 5000000 steps penalty 1 = 1 + 0
c [cliff-2] failed 0, lifted 0
c [unhide-2] limit 1000000 with penalty 0 = 0 + 0
c [unhide-2-2] 0 units, 0 failed, 2318 tauts, 0 hbrs, 337 literals
c u    6.8   52539   236987       433     344  10111   590  13  7.8 494.9   26
c [transred-3] limit 100000 with penalty 0 = 0 + 0
c t    6.8   52539   236986       433     344  10107   590  13  7.8 494.9   26
c [block-2] scheduling all variables this time
c [block-2] scheduled 52539 variables 100%
c [block-2] limit of 10000000 steps penalty 0 = 0 + 0
c [block-2] fully completed blocked clause elimination
c [block-2] transition to [ all 0 rem 0 ] state
c [block-2] eliminated 0 blocked clauses
c [cce-2] 49785 variables 95% will be scheduled this time
c [cce-2] limit of 10000000 steps penalty 0 = 0 + 0
c [cce-2] 49369 variables 94% remain to be tried next time
c [cce-2] transition to [ all 0 rem 1 ] state
c [cce-2] eliminated 322 covered clauses
c E    7.6   52539   236664       433     344  10447   590  13  7.8 494.9   21
c [elim-2] 44049 variables 84% will be scheduled this time
c [elim-2] scheduled 44049 variables 84%
c [elim-2] limit of 5000000 steps penalty 0 = 0 + 0
c [elim-2] 33980 variables 65% remain to be tried next time
c [elim-2] transition to [ all 0 rem 1 ] state
c [elim-2] eliminated 1080 = 2% variables out of 52539
c e    9.2   51459   236165       433     341   7557   589  13  7.8 494.9   21
c [phase-2] phase bias: 3 positive 75%, 1 negative 25%
c [simplification-2] removed 1080 variables 2%
c [simplification-2] limit increments divided by 2
c [simplification-2] arithmetic increase of conflict limit interval by 5000
c [simplification-2] new irredundant limit 2344289
c [simplification-2] new conflict limit 5766
c [simplification-2] simplification penalty reduced to 2
c R    9.6   51459   236165       972     810   7579   630   6  7.4 303.2   26
c -    9.9   51459   236165      1209     501   7596   657   5  6.9 275.1   26
c 1   10.6   51459   236165      2202    1378   7637   728   7  7.4 243.5   26
c 
c  seconds         irredundant          redundant clauses agility   height
c          variables clauses conflicts large binary ternary    glue         MB
c 
c blkd: 2 bces, 4600 removed, 1405899 resolutions, 3915198 steps
c blkd: 4600 blocking literals 1%, 0 pure
c cces: 2 cces, 379 eliminated, 379 ate 100%, 0 abce 0%
c cces: 11584 probed, 1 lifted, 1 failed
c clff: 2 cliffs, 0 lifted, 0 failed
c clff: 6116 decisions, 15025161 steps
c clls: 1 sat, 0 simp, 0 freeze, 0 melt
c clls: 2208028 add, 0 assume,, 0 deref, 0 failed
c clls: 0 cassume, 0 mosat
c coll: 11 gcs, 0 rescored clauses
c cgrs: 2 count, 300001 esteps, 67922 csteps
c cgrs: 0 eqs, 0 units
c cgrs: 0 matched (0 ands 0%, 0 xors 0%, 0 ites 0%)
c cgrs: 0 simplified (0 ands 0%, 0 xors 0%, 0 ites 0%)
c cgrs: 1959 extracted (1664 ands 85%, 295 xors 15%, 0 ites 0%)
c dcps: 3 decompositions, 68842 equivalent 30%
c decs: 40473 decision, 39 random 0.096%
c decs: 9844 flipped 24.322% (in 14 phases)
c elms: 2 elims, 7462 eliminated 3%
c elms: 7462 small 100%, 0 large 0%
c elms: 24996 tried small, 7462 succeeded 30%, 17534 failed 70%
c elms: 0 subsumed, 0 strengthened, 0 blocked
c elms: 315203 copies, 218432 resolutions, 648969 ipos
c elms: 0 subchks, 0 strchks
c frcs: 0 computed, 29.9 - 70.1 average min-cut range
c gaus: 2 extractions, 165902 extracted, 2.0 size, 3 max
c gaus: exported 0 units, 1 binary and 0 ternary equations
c gaus: 0 gc, 8000142 steps, 4000071 extr 50%, 2378250 elim 30%
c glue: 7.4 avg, 2.7 scaled avg
c glue: 0 maxredglue=15 (0%)
c lift: 2 phases, 390 probed (130 level1 33%, 260 level2 67%)
c lift: 0 units, 0 equivalences, 0 implications
c hbrs: 27826 hbrs = 27826 trn 100% + 0 lrg 0%, 1 sub 0%
c lrnd: 2187 clauses, 1361 uips 62%, 26.2 length, 7.4 glue
c ints: 127 luby (11743 steps), 0 inout (0 steps)
c mins: 57345 learned lits, 5% minimized
c move: moved 4979, 379 binary 8%, 4600 ternary 92%
c otfs: str 60 dyn (47 red, 13 irr) 15 drv 25%, 45 rst 75%
c otfs: sub 0 dyn (0 red, 0 irr)
c phas: 2 computed, 8044 set, 1788 pos (22%), 6256 neg (78%)
c prbs: 2 basic, 1768 probed, 0 failed, 0 lifted
c prps: 10436833 props, 124 props/dec
c prps: 48% srch, 52% simp, 0% lkhd
c psns: 270012 searches, 32503 hits, 12% hit rate
c queu: 9525 new, 3816 del, 120 maximum priority
c queu: 5694 merged, 1228 collected, 2 gcs
c queu: 2247 deprioritized, 25.2 lines on average
c reds: 1 count, 0 reset, 1 acts 100%, 0 exp 0%
c reds: 1 arithmetic 100%, 1 double 100%
c rmbd: 6 removed, 0 red 0%
c rsts: 94 restarts 75%, 32 skipped 25%
c rsts: 14 kept 14.9% average 31.4%
c simp: 2 count (0 ilim 0%, 0 plim 0%, 2 clim 100%)
c trnr: 2 count, 0 bin, 3 trn, 4866070 steps
c tops: 103381 fixed 45%, 0 iterations
c trds: 4 transitive reductions, 14 removed, 0 failed
c trds: 227 nodes, 321 edges, 202917 steps
c unhd: 2 count, 2 rounds, 2500306 steps
c unhd: 0 non-trivial sccs of average size 0.0
c unhd: 0 units, 0 bin, 0 trn, 0 lrg
c unhd: 0 failed, 0 stamp, 0 lits, 0 bin, 0 trn, 0 lrg
c unhd: 24190 tauts, 0 bin 0%, 1 trn 0%, 5 lrg 0%
c unhd: 24190 tauts, 24184 stamp 100%, 2318 red 10%
c unhd: 0 hbrs, 0 trn 0%, 0 lrg 0%, 0 red 0%
c unhd: 421 strd, 0 bin 0%, 0 trn 0%, 421 lrg 100%, 421 red 100%
c vars: 51459 remaining 22% and 179685 removed 78% out of 231144
c vars: 103381 fixed 45%, 7462 eliminated 3%, 68842 equivalent 30%
c vsts: 49543630 visits, 50% srch, 50% simp, 0% lkhd
c vsts: 4.9 search visits per propagation 11195.0 per conflict
c wchs: 9092693 pushed, 4247970 enlarged, 20 defrags
c 
c scaledglue  added       reduced       forcing      resolved     conflicts
c 
c all      1937 100       500 100      6891 100      3544 100       272 100
c 
c  0          0   0         0   0         0   0         0   0         0   0 
c  1         18   1         0   0       285   4        31   1         0   0 
c  2        701  36       244  49      2980  43      1028  29        56  21 
c  3        638  33<      170  34<     2360  34<     1250  35<       96  35<
c  4        367  19        62  12       936  14       822  23        81  30 
c  5        184   9        21   4       288   4       364  10        36  13 
c  6         18   1         0   0        23   0        35   1         3   1 
c  7          6   0         1   0        12   0         9   0         0   0 
c  8          4   0         1   0         6   0         4   0         0   0 
c  9          1   0         1   0         1   0         1   0         0   0 
c 10          0   0         0   0         0   0         0   0         0   0 
c 11          0   0         0   0         0   0         0   0         0   0 
c 12          0   0         0   0         0   0         0   0         0   0 
c 13          0   0         0   0         0   0         0   0         0   0 
c 14          0   0         0   0         0   0         0   0         0   0 
c 15          0   0         0   0         0   0         0   0         0   0 
c 
c avg             3.1           2.8           2.7           3.2           3.4
c std             1.1           0.9           1.0           1.1           1.0
c 
c 40473 decisions, 2202 conflicts, 207.6 conflicts/sec
c 10436833 propagations, 1.0 megaprops/sec
c 10.6 seconds, 49.2 MB
c 
c    0.196   2% analysis
c    0.464   4% block
c    0.004   0% bump
c    0.000   0% card
c    1.292  12% cce
c    0.860   8% cliff
c    0.028   0% cutwidth
c    0.048   0% decide
c    0.000   0% force
c    0.868   8% gc
c    0.324   3% cgrclsr
c    0.552   5% decomp
c    0.252   2% defrag
c    3.128  29% elim
c    1.496  14% gauss
c    0.320   3% lift
c    0.020   0% mincls
c    0.080   1% phase
c    0.152   1% probe
c    0.004   0% reduce
c    0.092   1% restart
c    0.148   1% ternres
c    0.024   0% transred
c    0.356   3% unhide
c ==================================
c    0.036   0% preprocessing     0%
c    9.097  86% inprocessing    100%
c ==================================
c    9.133  86% simplifying
c    0.000   0% lookahead
c    1.456  14% search
c ==================================
c   10.605 100% all
c
s SATISFIABLE
